Input/IP/Random/Random_010_03_3.lp
min: z;
+y0 +y1 +y2 +y3 +y4 +y5 +y6 +y7 +y8 +y9 = 3;
+x0.0 +x0.1 +x0.2 +x0.3 +x0.4 +x0.5 +x0.6 +x0.7 +x0.8 +x0.9 = 1;
+x1.0 +x1.1 +x1.2 +x1.3 +x1.4 +x1.5 +x1.6 +x1.7 +x1.8 +x1.9 = 1;
+x2.0 +x2.1 +x2.2 +x2.3 +x2.4 +x2.5 +x2.6 +x2.7 +x2.8 +x2.9 = 1;
+x3.0 +x3.1 +x3.2 +x3.3 +x3.4 +x3.5 +x3.6 +x3.7 +x3.8 +x3.9 = 1;
+x4.0 +x4.1 +x4.2 +x4.3 +x4.4 +x4.5 +x4.6 +x4.7 +x4.8 +x4.9 = 1;
+x5.0 +x5.1 +x5.2 +x5.3 +x5.4 +x5.5 +x5.6 +x5.7 +x5.8 +x5.9 = 1;
+x6.0 +x6.1 +x6.2 +x6.3 +x6.4 +x6.5 +x6.6 +x6.7 +x6.8 +x6.9 = 1;
+x7.0 +x7.1 +x7.2 +x7.3 +x7.4 +x7.5 +x7.6 +x7.7 +x7.8 +x7.9 = 1;
+x8.0 +x8.1 +x8.2 +x8.3 +x8.4 +x8.5 +x8.6 +x8.7 +x8.8 +x8.9 = 1;
+x9.0 +x9.1 +x9.2 +x9.3 +x9.4 +x9.5 +x9.6 +x9.7 +x9.8 +x9.9 = 1;
x0.0 <= y0;
x0.1 <= y1;
x0.2 <= y2;
x0.3 <= y3;
x0.4 <= y4;
x0.5 <= y5;
x0.6 <= y6;
x0.7 <= y7;
x0.8 <= y8;
x0.9 <= y9;
x1.0 <= y0;
x1.1 <= y1;
x1.2 <= y2;
x1.3 <= y3;
x1.4 <= y4;
x1.5 <= y5;
x1.6 <= y6;
x1.7 <= y7;
x1.8 <= y8;
x1.9 <= y9;
x2.0 <= y0;
x2.1 <= y1;
x2.2 <= y2;
x2.3 <= y3;
x2.4 <= y4;
x2.5 <= y5;
x2.6 <= y6;
x2.7 <= y7;
x2.8 <= y8;
x2.9 <= y9;
x3.0 <= y0;
x3.1 <= y1;
x3.2 <= y2;
x3.3 <= y3;
x3.4 <= y4;
x3.5 <= y5;
x3.6 <= y6;
x3.7 <= y7;
x3.8 <= y8;
x3.9 <= y9;
x4.0 <= y0;
x4.1 <= y1;
x4.2 <= y2;
x4.3 <= y3;
x4.4 <= y4;
x4.5 <= y5;
x4.6 <= y6;
x4.7 <= y7;
x4.8 <= y8;
x4.9 <= y9;
x5.0 <= y0;
x5.1 <= y1;
x5.2 <= y2;
x5.3 <= y3;
x5.4 <= y4;
x5.5 <= y5;
x5.6 <= y6;
x5.7 <= y7;
x5.8 <= y8;
x5.9 <= y9;
x6.0 <= y0;
x6.1 <= y1;
x6.2 <= y2;
x6.3 <= y3;
x6.4 <= y4;
x6.5 <= y5;
x6.6 <= y6;
x6.7 <= y7;
x6.8 <= y8;
x6.9 <= y9;
x7.0 <= y0;
x7.1 <= y1;
x7.2 <= y2;
x7.3 <= y3;
x7.4 <= y4;
x7.5 <= y5;
x7.6 <= y6;
x7.7 <= y7;
x7.8 <= y8;
x7.9 <= y9;
x8.0 <= y0;
x8.1 <= y1;
x8.2 <= y2;
x8.3 <= y3;
x8.4 <= y4;
x8.5 <= y5;
x8.6 <= y6;
x8.7 <= y7;
x8.8 <= y8;
x8.9 <= y9;
x9.0 <= y0;
x9.1 <= y1;
x9.2 <= y2;
x9.3 <= y3;
x9.4 <= y4;
x9.5 <= y5;
x9.6 <= y6;
x9.7 <= y7;
x9.8 <= y8;
x9.9 <= y9;
 z +0x0.0 -74x0.1 -13x0.2 -37x0.3 -67x0.4 -31x0.5 -24x0.6 -59x0.7 -44x0.8 -28x0.9  >= 0;
 z -74x1.0 +0x1.1 -61x1.2 -82x1.3 -42x1.4 -79x1.5 -50x1.6 -65x1.7 -92x1.8 -76x1.9  >= 0;
 z -13x2.0 -61x2.1 +0x2.2 -24x2.3 -54x2.4 -18x2.5 -11x2.6 -46x2.7 -31x2.8 -15x2.9  >= 0;
 z -37x3.0 -82x3.1 -24x3.2 +0x3.3 -75x3.4 -42x3.5 -32x3.6 -70x3.7 -55x3.8 -39x3.9  >= 0;
 z -67x4.0 -42x4.1 -54x4.2 -75x4.3 +0x4.4 -37x4.5 -43x4.6 -51x4.7 -53x4.8 -52x4.9  >= 0;
 z -31x5.0 -79x5.1 -18x5.2 -42x5.3 -37x5.4 +0x5.5 -29x5.6 -28x5.7 -31x5.8 -15x5.9  >= 0;
 z -24x6.0 -50x6.1 -11x6.2 -32x6.3 -43x6.4 -29x6.5 +0x6.6 -57x6.7 -42x6.8 -26x6.9  >= 0;
 z -59x7.0 -65x7.1 -46x7.2 -70x7.3 -51x7.4 -28x7.5 -57x7.6 +0x7.7 -59x7.8 -43x7.9  >= 0;
 z -44x8.0 -92x8.1 -31x8.2 -55x8.3 -53x8.4 -31x8.5 -42x8.6 -59x8.7 +0x8.8 -16x8.9  >= 0;
 z -28x9.0 -76x9.1 -15x9.2 -39x9.3 -52x9.4 -15x9.5 -26x9.6 -43x9.7 -16x9.8 +0x9.9  >= 0;
bin y0;
bin x0.0;
bin x0.1;
bin x0.2;
bin x0.3;
bin x0.4;
bin x0.5;
bin x0.6;
bin x0.7;
bin x0.8;
bin x0.9;
bin y1;
bin x1.0;
bin x1.1;
bin x1.2;
bin x1.3;
bin x1.4;
bin x1.5;
bin x1.6;
bin x1.7;
bin x1.8;
bin x1.9;
bin y2;
bin x2.0;
bin x2.1;
bin x2.2;
bin x2.3;
bin x2.4;
bin x2.5;
bin x2.6;
bin x2.7;
bin x2.8;
bin x2.9;
bin y3;
bin x3.0;
bin x3.1;
bin x3.2;
bin x3.3;
bin x3.4;
bin x3.5;
bin x3.6;
bin x3.7;
bin x3.8;
bin x3.9;
bin y4;
bin x4.0;
bin x4.1;
bin x4.2;
bin x4.3;
bin x4.4;
bin x4.5;
bin x4.6;
bin x4.7;
bin x4.8;
bin x4.9;
bin y5;
bin x5.0;
bin x5.1;
bin x5.2;
bin x5.3;
bin x5.4;
bin x5.5;
bin x5.6;
bin x5.7;
bin x5.8;
bin x5.9;
bin y6;
bin x6.0;
bin x6.1;
bin x6.2;
bin x6.3;
bin x6.4;
bin x6.5;
bin x6.6;
bin x6.7;
bin x6.8;
bin x6.9;
bin y7;
bin x7.0;
bin x7.1;
bin x7.2;
bin x7.3;
bin x7.4;
bin x7.5;
bin x7.6;
bin x7.7;
bin x7.8;
bin x7.9;
bin y8;
bin x8.0;
bin x8.1;
bin x8.2;
bin x8.3;
bin x8.4;
bin x8.5;
bin x8.6;
bin x8.7;
bin x8.8;
bin x8.9;
bin y9;
bin x9.0;
bin x9.1;
bin x9.2;
bin x9.3;
bin x9.4;
bin x9.5;
bin x9.6;
bin x9.7;
bin x9.8;
bin x9.9;
