Output/Exact/Random_010_03_3.lp.out
CPU Time for Parsing input: 0.001345s (0.001345s total since program start)
CPU Time for solving: 0.004227s (0.005572s total since program start)

Value of objective function: 37.00000000
